(set-logic QF_S)
(declare-fun var0 () String)
(declare-fun var1 () String)
(declare-fun var2 () String)
(declare-fun var3 () String)
(declare-fun var4 () Int)
(declare-fun var5 () Int)
(declare-fun var6 () Int)
(declare-fun var7 () Int)
(assert (< (str.len var0) (str.indexof var1 var2 18)))
(assert (str.prefixof (str.replace var3 var1 var2) (str.at "Ma5R(" var4)))
(assert (>= (str.indexof (str.replace var2 var0 var0) (str.substr var0 var5 var6) (str.len var2)) (str.len var3)))
(assert (not (> (str.indexof var1 var3 var7) (str.to.int var1))))
(check-sat)